networks/zoo_59_174/zoo_59_174-lower.txt
Number of groups: 19
Flow 1: {1 2 0} {2 7 0} {7 13 0} {13 43 0} 
Flow 2: {1 22 0} {22 14 0} {14 44 0} 
Flow 3: {2 1 0} {1 31 0} 
Flow 4: {7 37 0} 
Flow 5: {13 8 0} {8 38 0} 
Flow 8: {7 16 0} {16 46 0} 
Flow 9: {22 52 0} 
Flow 10: {13 6 0} {6 23 0} {23 53 0} 
Flow 11: {14 28 0} {28 29 0} {29 59 0} 
Flow 12: {3 14 0} Flow 13: {4 22 0} {22 1 0} Flow 14: {4 8 0} {8 13 0} {13 7 0} Flow 16: {13 9 0} {9 10 0} {10 40 0} 
Flow 19: {13 16 0} Flow 20: {14 19 0} {19 49 0} 
Flow 21: {22 21 0} {21 51 0} 
Flow 23: {14 24 0} {24 23 0} Flow 24: {14 27 0} {27 57 0} 
Flow 26: {5 14 0} {14 13 0} Flow 28: {6 13 0} Flow 30: {13 14 0} Flow 32: {14 22 0} Flow 34: {7 2 0} Flow 35: {2 32 0} 
Flow 37: {16 10 0} Flow 45: {24 54 0} 
Flow 47: {28 58 0} 
Flow 50: {9 13 0} Flow 55: {10 16 0} Flow 59: {16 7 0} Flow 61: {10 9 0} Flow 69: {11 14 0} Flow 70: {12 14 0} Flow 78: {6 36 0} 
Flow 82: {14 12 0} {12 42 0} 
Flow 90: {14 26 0} {26 56 0} 
Flow 97: {16 13 0} Flow 110: {18 14 0} Flow 112: {19 14 0} Flow 115: {20 13 0} Flow 116: {20 14 0} Flow 117: {21 22 0} Flow 119: {22 4 0} Flow 127: {21 30 0} {30 29 0} Flow 146: {23 6 0} Flow 147: {23 24 0} {24 14 0} Flow 154: {25 14 0} Flow 156: {26 14 0} Flow 158: {27 14 0} Flow 159: {28 14 0} Flow 167: {29 28 0} Flow 174: {30 21 0} Time taken running everything: 0 seconds
