networks/zoo_59_174/zoo_59_174-lower.sol
<?xml version = "1.0" encoding="UTF-8" standalone="yes"?>
<CPLEXSolution version="1.2">
 <header
   problemName="networks/zoo_59_174/zoo_59_174-lower.lp"
   solutionName="incumbent"
   solutionIndex="-1"
   objectiveValue="19"
   solutionTypeValue="3"
   solutionTypeString="primal"
   solutionStatusValue="101"
   solutionStatusString="integer optimal solution"
   solutionMethodString="mip"
   primalFeasible="1"
   dualFeasible="1"
   MIPNodes="0"
   MIPIterations="0"
   writeLevel="3"/>
 <quality
   epInt="1.0000000000000001e-05"
   epRHS="9.9999999999999995e-07"
   maxIntInfeas="0"
   maxPrimalInfeas="0"
   maxX="1"
   maxSlack="1"/>
 <variables>
  <variable name="Y(1,13)" index="12" value="1"/>
  <variable name="Y(2,14)" index="60" value="1"/>
  <variable name="Y(3,1)" index="94" value="1"/>
  <variable name="Y(4,7)" index="147" value="1"/>
  <variable name="Y(5,8)" index="195" value="1"/>
  <variable name="Y(8,16)" index="343" value="1"/>
  <variable name="Y(9,22)" index="395" value="1"/>
  <variable name="Y(10,23)" index="443" value="1"/>
  <variable name="Y(11,29)" index="496" value="1"/>
  <variable name="Y(16,10)" index="714" value="1"/>
  <variable name="Y(20,19)" index="909" value="1"/>
  <variable name="Y(21,21)" index="958" value="1"/>
  <variable name="Y(24,27)" index="1105" value="1"/>
  <variable name="Y(35,2)" index="1599" value="1"/>
  <variable name="Y(45,24)" index="2089" value="1"/>
  <variable name="Y(47,28)" index="2187" value="1"/>
  <variable name="Y(78,6)" index="3624" value="1"/>
  <variable name="Y(82,12)" index="3818" value="1"/>
  <variable name="Y(90,26)" index="4206" value="1"/>
  <variable name="X(1,2,1)" index="8178" value="1"/>
  <variable name="X(1,22,2)" index="8353" value="1"/>
  <variable name="X(1,31,3)" index="8528" value="1"/>
  <variable name="X(2,1,3)" index="8702" value="1"/>
  <variable name="X(2,7,1)" index="8874" value="1"/>
  <variable name="X(2,32,35)" index="9082" value="1"/>
  <variable name="X(3,14,12)" index="9233" value="1"/>
  <variable name="X(4,8,14)" index="9409" value="1"/>
  <variable name="X(4,22,13)" index="9582" value="1"/>
  <variable name="X(5,14,26)" index="9769" value="1"/>
  <variable name="X(6,13,28)" index="9945" value="1"/>
  <variable name="X(6,23,10)" index="10101" value="1"/>
  <variable name="X(6,36,78)" index="10343" value="1"/>
  <variable name="X(7,2,34)" index="10473" value="1"/>
  <variable name="X(7,13,1)" index="10614" value="1"/>
  <variable name="X(7,16,8)" index="10795" value="1"/>
  <variable name="X(7,37,4)" index="10965" value="1"/>
  <variable name="X(8,13,14)" index="11149" value="1"/>
  <variable name="X(8,38,5)" index="11314" value="1"/>
  <variable name="X(9,10,16)" index="11499" value="1"/>
  <variable name="X(9,13,50)" index="11707" value="1"/>
  <variable name="X(10,9,61)" index="11892" value="1"/>
  <variable name="X(10,16,55)" index="12060" value="1"/>
  <variable name="X(10,40,16)" index="12195" value="1"/>
  <variable name="X(11,14,69)" index="12422" value="1"/>
  <variable name="X(12,14,70)" index="12597" value="1"/>
  <variable name="X(12,42,82)" index="12783" value="1"/>
  <variable name="X(13,6,10)" index="12885" value="1"/>
  <variable name="X(13,7,14)" index="13063" value="1"/>
  <variable name="X(13,8,5)" index="13228" value="1"/>
  <variable name="X(13,9,16)" index="13413" value="1"/>
  <variable name="X(13,14,30)" index="13601" value="1"/>
  <variable name="X(13,16,19)" index="13764" value="1"/>
  <variable name="X(13,43,1)" index="13920" value="1"/>
  <variable name="X(14,12,82)" index="14175" value="1"/>
  <variable name="X(14,13,26)" index="14293" value="1"/>
  <variable name="X(14,19,20)" index="14461" value="1"/>
  <variable name="X(14,22,32)" index="14647" value="1"/>
  <variable name="X(14,24,23)" index="14812" value="1"/>
  <variable name="X(14,26,90)" index="15053" value="1"/>
  <variable name="X(14,27,24)" index="15161" value="1"/>
  <variable name="X(14,28,11)" index="15322" value="1"/>
  <variable name="X(14,44,2)" index="15487" value="1"/>
  <variable name="X(16,7,59)" index="15718" value="1"/>
  <variable name="X(16,10,37)" index="15870" value="1"/>
  <variable name="X(16,13,97)" index="16104" value="1"/>
  <variable name="X(16,46,8)" index="16189" value="1"/>
  <variable name="X(18,14,110)" index="16465" value="1"/>
  <variable name="X(19,14,112)" index="16641" value="1"/>
  <variable name="X(19,49,20)" index="16723" value="1"/>
  <variable name="X(20,13,115)" index="16992" value="1"/>
  <variable name="X(20,14,116)" index="17167" value="1"/>
  <variable name="X(21,22,117)" index="17342" value="1"/>
  <variable name="X(21,30,127)" index="17526" value="1"/>
  <variable name="X(21,51,21)" index="17594" value="1"/>
  <variable name="X(22,1,13)" index="17760" value="1"/>
  <variable name="X(22,4,119)" index="18040" value="1"/>
  <variable name="X(22,14,2)" index="18097" value="1"/>
  <variable name="X(22,21,21)" index="18290" value="1"/>
  <variable name="X(22,52,9)" index="18452" value="1"/>
  <variable name="X(23,6,146)" index="18763" value="1"/>
  <variable name="X(23,24,147)" index="18938" value="1"/>
  <variable name="X(23,53,10)" index="18975" value="1"/>
  <variable name="X(24,14,147)" index="19286" value="1"/>
  <variable name="X(24,23,23)" index="19336" value="1"/>
  <variable name="X(24,54,45)" index="19532" value="1"/>
  <variable name="X(25,14,154)" index="19815" value="1"/>
  <variable name="X(26,14,156)" index="19991" value="1"/>
  <variable name="X(26,56,90)" index="20099" value="1"/>
  <variable name="X(27,14,158)" index="20341" value="1"/>
  <variable name="X(27,57,24)" index="20381" value="1"/>
  <variable name="X(28,14,159)" index="20690" value="1"/>
  <variable name="X(28,29,11)" index="20716" value="1"/>
  <variable name="X(28,58,47)" index="20926" value="1"/>
  <variable name="X(29,28,167)" index="21220" value="1"/>
  <variable name="X(29,59,11)" index="21238" value="1"/>
  <variable name="X(30,21,174)" index="21575" value="1"/>
  <variable name="X(30,29,127)" index="21702" value="1"/>
 </variables>
</CPLEXSolution>
